language Essence 1.3

letting codeWordLength be 33
letting dist be
        function((1, 1) --> 0, (1, 2) --> 5, (1, 3) --> 2, (1, 4) --> 1, (1, 5) --> 1, (1, 6) --> 2, (1, 7) --> 7,
                 (1, 8) --> 5, (1, 9) --> 5, (1, 10) --> 7, (1, 11) --> 5, (1, 12) --> 9, (1, 13) --> 0, (1, 14) --> 2,
                 (2, 1) --> 5, (2, 2) --> 0, (2, 3) --> 1, (2, 4) --> 3, (2, 5) --> 7, (2, 6) --> 7, (2, 7) --> 6,
                 (2, 8) --> 7, (2, 9) --> 0, (2, 10) --> 6, (2, 11) --> 2, (2, 12) --> 4, (2, 13) --> 9, (2, 14) --> 4,
                 (3, 1) --> 2, (3, 2) --> 1, (3, 3) --> 0, (3, 4) --> 0, (3, 5) --> 7, (3, 6) --> 2, (3, 7) --> 6,
                 (3, 8) --> 1, (3, 9) --> 3, (3, 10) --> 5, (3, 11) --> 7, (3, 12) --> 6, (3, 13) --> 5, (3, 14) --> 1,
                 (4, 1) --> 1, (4, 2) --> 3, (4, 3) --> 0, (4, 4) --> 0, (4, 5) --> 0, (4, 6) --> 9, (4, 7) --> 6,
                 (4, 8) --> 1, (4, 9) --> 7, (4, 10) --> 7, (4, 11) --> 2, (4, 12) --> 3, (4, 13) --> 3, (4, 14) --> 1,
                 (5, 1) --> 1, (5, 2) --> 7, (5, 3) --> 7, (5, 4) --> 0, (5, 5) --> 0, (5, 6) --> 4, (5, 7) --> 4,
                 (5, 8) --> 5, (5, 9) --> 8, (5, 10) --> 0, (5, 11) --> 7, (5, 12) --> 8, (5, 13) --> 3, (5, 14) --> 8,
                 (6, 1) --> 2, (6, 2) --> 7, (6, 3) --> 2, (6, 4) --> 9, (6, 5) --> 4, (6, 6) --> 0, (6, 7) --> 5,
                 (6, 8) --> 7, (6, 9) --> 2, (6, 10) --> 3, (6, 11) --> 8, (6, 12) --> 3, (6, 13) --> 8, (6, 14) --> 1,
                 (7, 1) --> 7, (7, 2) --> 6, (7, 3) --> 6, (7, 4) --> 6, (7, 5) --> 4, (7, 6) --> 5, (7, 7) --> 0,
                 (7, 8) --> 2, (7, 9) --> 1, (7, 10) --> 4, (7, 11) --> 3, (7, 12) --> 6, (7, 13) --> 8, (7, 14) --> 5,
                 (8, 1) --> 5, (8, 2) --> 7, (8, 3) --> 1, (8, 4) --> 1, (8, 5) --> 5, (8, 6) --> 7, (8, 7) --> 2,
                 (8, 8) --> 0, (8, 9) --> 7, (8, 10) --> 0, (8, 11) --> 0, (8, 12) --> 0, (8, 13) --> 0, (8, 14) --> 1,
                 (9, 1) --> 5, (9, 2) --> 0, (9, 3) --> 3, (9, 4) --> 7, (9, 5) --> 8, (9, 6) --> 2, (9, 7) --> 1,
                 (9, 8) --> 7, (9, 9) --> 0, (9, 10) --> 5, (9, 11) --> 9, (9, 12) --> 5, (9, 13) --> 0, (9, 14) --> 3,
                 (10, 1) --> 7, (10, 2) --> 6, (10, 3) --> 5, (10, 4) --> 7, (10, 5) --> 0, (10, 6) --> 3,
                 (10, 7) --> 4, (10, 8) --> 0, (10, 9) --> 5, (10, 10) --> 0, (10, 11) --> 2, (10, 12) --> 6,
                 (10, 13) --> 9, (10, 14) --> 0, (11, 1) --> 5, (11, 2) --> 2, (11, 3) --> 7, (11, 4) --> 2,
                 (11, 5) --> 7, (11, 6) --> 8, (11, 7) --> 3, (11, 8) --> 0, (11, 9) --> 9, (11, 10) --> 2,
                 (11, 11) --> 0, (11, 12) --> 3, (11, 13) --> 5, (11, 14) --> 9, (12, 1) --> 9, (12, 2) --> 4,
                 (12, 3) --> 6, (12, 4) --> 3, (12, 5) --> 8, (12, 6) --> 3, (12, 7) --> 6, (12, 8) --> 0,
                 (12, 9) --> 5, (12, 10) --> 6, (12, 11) --> 3, (12, 12) --> 0, (12, 13) --> 1, (12, 14) --> 5,
                 (13, 1) --> 0, (13, 2) --> 9, (13, 3) --> 5, (13, 4) --> 3, (13, 5) --> 3, (13, 6) --> 8,
                 (13, 7) --> 8, (13, 8) --> 0, (13, 9) --> 0, (13, 10) --> 9, (13, 11) --> 5, (13, 12) --> 1,
                 (13, 13) --> 0, (13, 14) --> 9, (14, 1) --> 2, (14, 2) --> 4, (14, 3) --> 1, (14, 4) --> 1,
                 (14, 5) --> 8, (14, 6) --> 1, (14, 7) --> 5, (14, 8) --> 1, (14, 9) --> 3, (14, 10) --> 0,
                 (14, 11) --> 9, (14, 12) --> 5, (14, 13) --> 9, (14, 14) --> 0)
letting maxDist be 9
letting minDist be 44
letting nbCharacter be 14
letting numOfCodeWords be 6
